\* HI Lifetime *\
Minimize
Total_Energy: 60 Always1 - 165.9375 Star - 165.9375 _mN3 - 414.84375 _mN4
 - 829.6875 _mN5 - 1410.46875 _mN6 + 89.53125 _mP1N3 + 223.828125 _mP1N4
 + 447.65625 _mP1N5 + 761.015625 _mP1N6 + 108.375 _mP2N3 + 270.9375 _mP2N4
 + 541.875 _mP2N5 + 921.1875 _mP2N6 + 171.5625 _mP3N3 + 428.90625 _mP3N4
 + 857.8125 _mP3N5 + 1458.28125 _mP3N6 + 165.9375 _mn0N3 + 414.84375 _mn0N4
 + 829.6875 _mn0N5 + 1410.46875 _mn0N6 + 165.9375 _mn1N3 + 414.84375 _mn1N4
 + 829.6875 _mn1N5 + 1410.46875 _mn1N6 + 165.9375 _mn2N3 + 414.84375 _mn2N4
 + 829.6875 _mn2N5 + 1410.46875 _mn2N6 + 165.9375 _mn3N3 + 414.84375 _mn3N4
 + 829.6875 _mn3N5 + 1410.46875 _mn3N6 + 165.9375 _mn4N3 + 414.84375 _mn4N4
 + 829.6875 _mn4N5 + 1410.46875 _mn4N6 + 165.9375 _mn5N3 + 414.84375 _mn5N4
 + 829.6875 _mn5N5 + 1410.46875 _mn5N6 + 165.9375 _mn6N3 + 414.84375 _mn6N4
 + 829.6875 _mn6N5 + 1410.46875 _mn6N6 + 165.9375 _mn7N3 + 414.84375 _mn7N4
 + 829.6875 _mn7N5 + 1410.46875 _mn7N6 + 165.9375 _mn8N3 + 414.84375 _mn8N4
 + 829.6875 _mn8N5 + 1410.46875 _mn8N6 + 165.9375 _mn9N3 + 414.84375 _mn9N4
 + 829.6875 _mn9N5 + 1410.46875 _mn9N6 + 44.765625 _sP1 + 54.1875 _sP2
 + 85.78125 _sP3 + 165.9375 _sn0 + 165.9375 _sn1 + 165.9375 _sn2
 + 165.9375 _sn3 + 165.9375 _sn4 + 165.9375 _sn5 + 165.9375 _sn6
 + 165.9375 _sn7 + 165.9375 _sn8 + 165.9375 _sn9
Subject To
Central_Node: _n0 = 1
MAC: CSMA + TDMA = 1
Power_level: _P1 + _P2 + _P3 = 1
Routing: Mesh + Star = 1
SolDel: - 165.9375 Star - 165.9375 _mN3 - 414.84375 _mN4 - 829.6875 _mN5
 - 1410.46875 _mN6 + 89.53125 _mP1N3 + 223.828125 _mP1N4 + 447.65625 _mP1N5
 + 761.015625 _mP1N6 + 108.375 _mP2N3 + 270.9375 _mP2N4 + 541.875 _mP2N5
 + 921.1875 _mP2N6 + 171.5625 _mP3N3 + 428.90625 _mP3N4 + 857.8125 _mP3N5
 + 1458.28125 _mP3N6 + 165.9375 _mn0N3 + 414.84375 _mn0N4 + 829.6875 _mn0N5
 + 1410.46875 _mn0N6 + 165.9375 _mn1N3 + 414.84375 _mn1N4 + 829.6875 _mn1N5
 + 1410.46875 _mn1N6 + 165.9375 _mn2N3 + 414.84375 _mn2N4 + 829.6875 _mn2N5
 + 1410.46875 _mn2N6 + 165.9375 _mn3N3 + 414.84375 _mn3N4 + 829.6875 _mn3N5
 + 1410.46875 _mn3N6 + 165.9375 _mn4N3 + 414.84375 _mn4N4 + 829.6875 _mn4N5
 + 1410.46875 _mn4N6 + 165.9375 _mn5N3 + 414.84375 _mn5N4 + 829.6875 _mn5N5
 + 1410.46875 _mn5N6 + 165.9375 _mn6N3 + 414.84375 _mn6N4 + 829.6875 _mn6N5
 + 1410.46875 _mn6N6 + 165.9375 _mn7N3 + 414.84375 _mn7N4 + 829.6875 _mn7N5
 + 1410.46875 _mn7N6 + 165.9375 _mn8N3 + 414.84375 _mn8N4 + 829.6875 _mn8N5
 + 1410.46875 _mn8N6 + 165.9375 _mn9N3 + 414.84375 _mn9N4 + 829.6875 _mn9N5
 + 1410.46875 _mn9N6 + 44.765625 _sP1 + 54.1875 _sP2 + 85.78125 _sP3
 + 165.9375 _sn0 + 165.9375 _sn1 + 165.9375 _sn2 + 165.9375 _sn3
 + 165.9375 _sn4 + 165.9375 _sn5 + 165.9375 _sn6 + 165.9375 _sn7
 + 165.9375 _sn8 + 165.9375 _sn9 >= 543.578125
Total_number_of_nodes: _N3 + _N4 + _N5 + _N6 = 1
_C1: _n1 + _n2 >= 1
_C10: 100 _N5 - _n0 - _n1 - _n2 - _n3 - _n4 - _n5 - _n6 - _n7 - _n8 - _n9
 <= 95
_C100: - Mesh + _mn0N3 <= 0
_C101: _mn0N3 - _n0 <= 0
_C102: - _N3 + _mn0N3 <= 0
_C103: - Mesh - _N3 + _mn0N3 - _n0 >= -2
_C104: - Mesh + _mn0N4 <= 0
_C105: _mn0N4 - _n0 <= 0
_C106: - _N4 + _mn0N4 <= 0
_C107: - Mesh - _N4 + _mn0N4 - _n0 >= -2
_C108: - Mesh + _mn0N5 <= 0
_C109: _mn0N5 - _n0 <= 0
_C11: 100 _N6 + _n0 + _n1 + _n2 + _n3 + _n4 + _n5 + _n6 + _n7 + _n8 + _n9
 <= 106
_C110: - _N5 + _mn0N5 <= 0
_C111: - Mesh - _N5 + _mn0N5 - _n0 >= -2
_C112: - Mesh + _mn0N6 <= 0
_C113: _mn0N6 - _n0 <= 0
_C114: - _N6 + _mn0N6 <= 0
_C115: - Mesh - _N6 + _mn0N6 - _n0 >= -2
_C116: - Mesh + _mn1N3 <= 0
_C117: _mn1N3 - _n1 <= 0
_C118: - _N3 + _mn1N3 <= 0
_C119: - Mesh - _N3 + _mn1N3 - _n1 >= -2
_C12: 100 _N6 - _n0 - _n1 - _n2 - _n3 - _n4 - _n5 - _n6 - _n7 - _n8 - _n9
 <= 94
_C120: - Mesh + _mn1N4 <= 0
_C121: _mn1N4 - _n1 <= 0
_C122: - _N4 + _mn1N4 <= 0
_C123: - Mesh - _N4 + _mn1N4 - _n1 >= -2
_C124: - Mesh + _mn1N5 <= 0
_C125: _mn1N5 - _n1 <= 0
_C126: - _N5 + _mn1N5 <= 0
_C127: - Mesh - _N5 + _mn1N5 - _n1 >= -2
_C128: - Mesh + _mn1N6 <= 0
_C129: _mn1N6 - _n1 <= 0
_C13: - Star + _sP1 <= 0
_C130: - _N6 + _mn1N6 <= 0
_C131: - Mesh - _N6 + _mn1N6 - _n1 >= -2
_C132: - Mesh + _mn2N3 <= 0
_C133: _mn2N3 - _n2 <= 0
_C134: - _N3 + _mn2N3 <= 0
_C135: - Mesh - _N3 + _mn2N3 - _n2 >= -2
_C136: - Mesh + _mn2N4 <= 0
_C137: _mn2N4 - _n2 <= 0
_C138: - _N4 + _mn2N4 <= 0
_C139: - Mesh - _N4 + _mn2N4 - _n2 >= -2
_C14: - _P1 + _sP1 <= 0
_C140: - Mesh + _mn2N5 <= 0
_C141: _mn2N5 - _n2 <= 0
_C142: - _N5 + _mn2N5 <= 0
_C143: - Mesh - _N5 + _mn2N5 - _n2 >= -2
_C144: - Mesh + _mn2N6 <= 0
_C145: _mn2N6 - _n2 <= 0
_C146: - _N6 + _mn2N6 <= 0
_C147: - Mesh - _N6 + _mn2N6 - _n2 >= -2
_C148: - Mesh + _mn3N3 <= 0
_C149: _mn3N3 - _n3 <= 0
_C15: - Star - _P1 + _sP1 >= -1
_C150: - _N3 + _mn3N3 <= 0
_C151: - Mesh - _N3 + _mn3N3 - _n3 >= -2
_C152: - Mesh + _mn3N4 <= 0
_C153: _mn3N4 - _n3 <= 0
_C154: - _N4 + _mn3N4 <= 0
_C155: - Mesh - _N4 + _mn3N4 - _n3 >= -2
_C156: - Mesh + _mn3N5 <= 0
_C157: _mn3N5 - _n3 <= 0
_C158: - _N5 + _mn3N5 <= 0
_C159: - Mesh - _N5 + _mn3N5 - _n3 >= -2
_C16: - Star + _sP2 <= 0
_C160: - Mesh + _mn3N6 <= 0
_C161: _mn3N6 - _n3 <= 0
_C162: - _N6 + _mn3N6 <= 0
_C163: - Mesh - _N6 + _mn3N6 - _n3 >= -2
_C164: - Mesh + _mn4N3 <= 0
_C165: _mn4N3 - _n4 <= 0
_C166: - _N3 + _mn4N3 <= 0
_C167: - Mesh - _N3 + _mn4N3 - _n4 >= -2
_C168: - Mesh + _mn4N4 <= 0
_C169: _mn4N4 - _n4 <= 0
_C17: - _P2 + _sP2 <= 0
_C170: - _N4 + _mn4N4 <= 0
_C171: - Mesh - _N4 + _mn4N4 - _n4 >= -2
_C172: - Mesh + _mn4N5 <= 0
_C173: _mn4N5 - _n4 <= 0
_C174: - _N5 + _mn4N5 <= 0
_C175: - Mesh - _N5 + _mn4N5 - _n4 >= -2
_C176: - Mesh + _mn4N6 <= 0
_C177: _mn4N6 - _n4 <= 0
_C178: - _N6 + _mn4N6 <= 0
_C179: - Mesh - _N6 + _mn4N6 - _n4 >= -2
_C18: - Star - _P2 + _sP2 >= -1
_C180: - Mesh + _mn5N3 <= 0
_C181: _mn5N3 - _n5 <= 0
_C182: - _N3 + _mn5N3 <= 0
_C183: - Mesh - _N3 + _mn5N3 - _n5 >= -2
_C184: - Mesh + _mn5N4 <= 0
_C185: _mn5N4 - _n5 <= 0
_C186: - _N4 + _mn5N4 <= 0
_C187: - Mesh - _N4 + _mn5N4 - _n5 >= -2
_C188: - Mesh + _mn5N5 <= 0
_C189: _mn5N5 - _n5 <= 0
_C19: - Star + _sP3 <= 0
_C190: - _N5 + _mn5N5 <= 0
_C191: - Mesh - _N5 + _mn5N5 - _n5 >= -2
_C192: - Mesh + _mn5N6 <= 0
_C193: _mn5N6 - _n5 <= 0
_C194: - _N6 + _mn5N6 <= 0
_C195: - Mesh - _N6 + _mn5N6 - _n5 >= -2
_C196: - Mesh + _mn6N3 <= 0
_C197: _mn6N3 - _n6 <= 0
_C198: - _N3 + _mn6N3 <= 0
_C199: - Mesh - _N3 + _mn6N3 - _n6 >= -2
_C2: _n3 + _n4 >= 1
_C20: - _P3 + _sP3 <= 0
_C200: - Mesh + _mn6N4 <= 0
_C201: _mn6N4 - _n6 <= 0
_C202: - _N4 + _mn6N4 <= 0
_C203: - Mesh - _N4 + _mn6N4 - _n6 >= -2
_C204: - Mesh + _mn6N5 <= 0
_C205: _mn6N5 - _n6 <= 0
_C206: - _N5 + _mn6N5 <= 0
_C207: - Mesh - _N5 + _mn6N5 - _n6 >= -2
_C208: - Mesh + _mn6N6 <= 0
_C209: _mn6N6 - _n6 <= 0
_C21: - Star - _P3 + _sP3 >= -1
_C210: - _N6 + _mn6N6 <= 0
_C211: - Mesh - _N6 + _mn6N6 - _n6 >= -2
_C212: - Mesh + _mn7N3 <= 0
_C213: _mn7N3 - _n7 <= 0
_C214: - _N3 + _mn7N3 <= 0
_C215: - Mesh - _N3 + _mn7N3 - _n7 >= -2
_C216: - Mesh + _mn7N4 <= 0
_C217: _mn7N4 - _n7 <= 0
_C218: - _N4 + _mn7N4 <= 0
_C219: - Mesh - _N4 + _mn7N4 - _n7 >= -2
_C22: - Star + _sn0 <= 0
_C220: - Mesh + _mn7N5 <= 0
_C221: _mn7N5 - _n7 <= 0
_C222: - _N5 + _mn7N5 <= 0
_C223: - Mesh - _N5 + _mn7N5 - _n7 >= -2
_C224: - Mesh + _mn7N6 <= 0
_C225: _mn7N6 - _n7 <= 0
_C226: - _N6 + _mn7N6 <= 0
_C227: - Mesh - _N6 + _mn7N6 - _n7 >= -2
_C228: - Mesh + _mn8N3 <= 0
_C229: _mn8N3 - _n8 <= 0
_C23: - _n0 + _sn0 <= 0
_C230: - _N3 + _mn8N3 <= 0
_C231: - Mesh - _N3 + _mn8N3 - _n8 >= -2
_C232: - Mesh + _mn8N4 <= 0
_C233: _mn8N4 - _n8 <= 0
_C234: - _N4 + _mn8N4 <= 0
_C235: - Mesh - _N4 + _mn8N4 - _n8 >= -2
_C236: - Mesh + _mn8N5 <= 0
_C237: _mn8N5 - _n8 <= 0
_C238: - _N5 + _mn8N5 <= 0
_C239: - Mesh - _N5 + _mn8N5 - _n8 >= -2
_C24: - Star - _n0 + _sn0 >= -1
_C240: - Mesh + _mn8N6 <= 0
_C241: _mn8N6 - _n8 <= 0
_C242: - _N6 + _mn8N6 <= 0
_C243: - Mesh - _N6 + _mn8N6 - _n8 >= -2
_C244: - Mesh + _mn9N3 <= 0
_C245: _mn9N3 - _n9 <= 0
_C246: - _N3 + _mn9N3 <= 0
_C247: - Mesh - _N3 + _mn9N3 - _n9 >= -2
_C248: - Mesh + _mn9N4 <= 0
_C249: _mn9N4 - _n9 <= 0
_C25: - Star + _sn1 <= 0
_C250: - _N4 + _mn9N4 <= 0
_C251: - Mesh - _N4 + _mn9N4 - _n9 >= -2
_C252: - Mesh + _mn9N5 <= 0
_C253: _mn9N5 - _n9 <= 0
_C254: - _N5 + _mn9N5 <= 0
_C255: - Mesh - _N5 + _mn9N5 - _n9 >= -2
_C256: - Mesh + _mn9N6 <= 0
_C257: _mn9N6 - _n9 <= 0
_C258: - _N6 + _mn9N6 <= 0
_C259: - Mesh - _N6 + _mn9N6 - _n9 >= -2
_C26: - _n1 + _sn1 <= 0
_C260: - Mesh + _mN3 <= 0
_C261: - _N3 + _mN3 <= 0
_C262: - Mesh - _N3 + _mN3 >= -1
_C263: - Mesh + _mN4 <= 0
_C264: - _N4 + _mN4 <= 0
_C265: - Mesh - _N4 + _mN4 >= -1
_C266: - Mesh + _mN5 <= 0
_C267: - _N5 + _mN5 <= 0
_C268: - Mesh - _N5 + _mN5 >= -1
_C269: - Mesh + _mN6 <= 0
_C27: - Star - _n1 + _sn1 >= -1
_C270: - _N6 + _mN6 <= 0
_C271: - Mesh - _N6 + _mN6 >= -1
_C28: - Star + _sn2 <= 0
_C29: - _n2 + _sn2 <= 0
_C3: _n5 + _n9 >= 1
_C30: - Star - _n2 + _sn2 >= -1
_C31: - Star + _sn3 <= 0
_C32: - _n3 + _sn3 <= 0
_C33: - Star - _n3 + _sn3 >= -1
_C34: - Star + _sn4 <= 0
_C35: - _n4 + _sn4 <= 0
_C36: - Star - _n4 + _sn4 >= -1
_C37: - Star + _sn5 <= 0
_C38: - _n5 + _sn5 <= 0
_C39: - Star - _n5 + _sn5 >= -1
_C4: _n0 + _n1 + _n2 + _n3 + _n4 + _n5 + _n6 + _n7 + _n8 + _n9 <= 6
_C40: - Star + _sn6 <= 0
_C41: - _n6 + _sn6 <= 0
_C42: - Star - _n6 + _sn6 >= -1
_C43: - Star + _sn7 <= 0
_C44: - _n7 + _sn7 <= 0
_C45: - Star - _n7 + _sn7 >= -1
_C46: - Star + _sn8 <= 0
_C47: - _n8 + _sn8 <= 0
_C48: - Star - _n8 + _sn8 >= -1
_C49: - Star + _sn9 <= 0
_C5: 100 _N3 + _n0 + _n1 + _n2 + _n3 + _n4 + _n5 + _n6 + _n7 + _n8 + _n9
 <= 103
_C50: - _n9 + _sn9 <= 0
_C51: - Star - _n9 + _sn9 >= -1
_C52: - Mesh + _mP1N3 <= 0
_C53: - _P1 + _mP1N3 <= 0
_C54: - _N3 + _mP1N3 <= 0
_C55: - Mesh - _N3 - _P1 + _mP1N3 >= -2
_C56: - Mesh + _mP1N4 <= 0
_C57: - _P1 + _mP1N4 <= 0
_C58: - _N4 + _mP1N4 <= 0
_C59: - Mesh - _N4 - _P1 + _mP1N4 >= -2
_C6: 100 _N3 - _n0 - _n1 - _n2 - _n3 - _n4 - _n5 - _n6 - _n7 - _n8 - _n9 <= 97
_C60: - Mesh + _mP1N5 <= 0
_C61: - _P1 + _mP1N5 <= 0
_C62: - _N5 + _mP1N5 <= 0
_C63: - Mesh - _N5 - _P1 + _mP1N5 >= -2
_C64: - Mesh + _mP1N6 <= 0
_C65: - _P1 + _mP1N6 <= 0
_C66: - _N6 + _mP1N6 <= 0
_C67: - Mesh - _N6 - _P1 + _mP1N6 >= -2
_C68: - Mesh + _mP2N3 <= 0
_C69: - _P2 + _mP2N3 <= 0
_C7: 100 _N4 + _n0 + _n1 + _n2 + _n3 + _n4 + _n5 + _n6 + _n7 + _n8 + _n9
 <= 104
_C70: - _N3 + _mP2N3 <= 0
_C71: - Mesh - _N3 - _P2 + _mP2N3 >= -2
_C72: - Mesh + _mP2N4 <= 0
_C73: - _P2 + _mP2N4 <= 0
_C74: - _N4 + _mP2N4 <= 0
_C75: - Mesh - _N4 - _P2 + _mP2N4 >= -2
_C76: - Mesh + _mP2N5 <= 0
_C77: - _P2 + _mP2N5 <= 0
_C78: - _N5 + _mP2N5 <= 0
_C79: - Mesh - _N5 - _P2 + _mP2N5 >= -2
_C8: 100 _N4 - _n0 - _n1 - _n2 - _n3 - _n4 - _n5 - _n6 - _n7 - _n8 - _n9 <= 96
_C80: - Mesh + _mP2N6 <= 0
_C81: - _P2 + _mP2N6 <= 0
_C82: - _N6 + _mP2N6 <= 0
_C83: - Mesh - _N6 - _P2 + _mP2N6 >= -2
_C84: - Mesh + _mP3N3 <= 0
_C85: - _P3 + _mP3N3 <= 0
_C86: - _N3 + _mP3N3 <= 0
_C87: - Mesh - _N3 - _P3 + _mP3N3 >= -2
_C88: - Mesh + _mP3N4 <= 0
_C89: - _P3 + _mP3N4 <= 0
_C9: 100 _N5 + _n0 + _n1 + _n2 + _n3 + _n4 + _n5 + _n6 + _n7 + _n8 + _n9
 <= 105
_C90: - _N4 + _mP3N4 <= 0
_C91: - Mesh - _N4 - _P3 + _mP3N4 >= -2
_C92: - Mesh + _mP3N5 <= 0
_C93: - _P3 + _mP3N5 <= 0
_C94: - _N5 + _mP3N5 <= 0
_C95: - Mesh - _N5 - _P3 + _mP3N5 >= -2
_C96: - Mesh + _mP3N6 <= 0
_C97: - _P3 + _mP3N6 <= 0
_C98: - _N6 + _mP3N6 <= 0
_C99: - Mesh - _N6 - _P3 + _mP3N6 >= -2
Bounds
Always1 = 1
Generals
Always1
Binaries
CSMA
Mesh
Star
TDMA
_N3
_N4
_N5
_N6
_P1
_P2
_P3
_mN3
_mN4
_mN5
_mN6
_mP1N3
_mP1N4
_mP1N5
_mP1N6
_mP2N3
_mP2N4
_mP2N5
_mP2N6
_mP3N3
_mP3N4
_mP3N5
_mP3N6
_mn0N3
_mn0N4
_mn0N5
_mn0N6
_mn1N3
_mn1N4
_mn1N5
_mn1N6
_mn2N3
_mn2N4
_mn2N5
_mn2N6
_mn3N3
_mn3N4
_mn3N5
_mn3N6
_mn4N3
_mn4N4
_mn4N5
_mn4N6
_mn5N3
_mn5N4
_mn5N5
_mn5N6
_mn6N3
_mn6N4
_mn6N5
_mn6N6
_mn7N3
_mn7N4
_mn7N5
_mn7N6
_mn8N3
_mn8N4
_mn8N5
_mn8N6
_mn9N3
_mn9N4
_mn9N5
_mn9N6
_n0
_n1
_n2
_n3
_n4
_n5
_n6
_n7
_n8
_n9
_sP1
_sP2
_sP3
_sn0
_sn1
_sn2
_sn3
_sn4
_sn5
_sn6
_sn7
_sn8
_sn9
End
